NAME: I24737-n84-k6
COMMENT : (Fake et al, No of trucks: 6, Optimal value: )
TYPE : CVRP
DIMENSION : 84
EDGE_WEIGHT_TYPE : EUC_2D
CAPACITY : 16
NODE_COORD_SECTION
1 756 145
2 826 226
3 29 361
4 413 1
5 818 988
6 113 499
7 739 511
8 509 158
9 914 582
10 749 592
11 227 436
12 879 265
13 536 183
14 866 321
15 615 479
16 500 902
17 989 792
18 353 374
19 459 348
20 448 331
21 747 677
22 922 691
23 628 792
24 603 84
25 693 188
26 642 26
27 210 517
28 464 823
29 625 881
30 646 222
31 161 218
32 268 586
33 960 611
34 410 797
35 538 878
36 787 859
37 624 820
38 983 264
39 710 861
40 603 538
41 416 667
42 216 598
43 770 315
44 499 444
45 132 821
46 898 184
47 0 985
48 859 586
49 554 582
50 736 56
51 659 171
52 224 709
53 936 215
54 982 954
55 757 270
56 69 554
57 774 954
58 737 892
59 788 155
60 237 575
61 434 838
62 670 772
63 438 266
64 918 44
65 929 281
66 833 245
67 685 740
68 105 955
69 60 90
70 912 834
71 137 888
72 821 465
73 676 689
74 297 803
75 848 599
76 896 434
77 19 911
78 144 227
79 146 987
80 994 756
81 589 728
82 80 357
83 779 751
84 573 283
DEMAND_SECTION
1 0
2 1
3 1
4 1
5 1
6 1
7 1
8 1
9 1
10 1
11 1
12 1
13 1
14 1
15 1
16 1
17 1
18 1
19 1
20 1
21 1
22 1
23 1
24 1
25 1
26 1
27 1
28 1
29 1
30 1
31 1
32 1
33 1
34 1
35 1
36 1
37 1
38 1
39 1
40 1
41 1
42 1
43 1
44 1
45 1
46 1
47 1
48 1
49 1
50 1
51 1
52 1
53 1
54 1
55 1
56 1
57 1
58 1
59 1
60 1
61 1
62 1
63 1
64 1
65 1
66 1
67 1
68 1
69 1
70 1
71 1
72 1
73 1
74 1
75 1
76 1
77 1
78 1
79 1
80 1
81 1
82 1
83 1
84 1
DEPOT_SECTION
 1
 -1
 EOF 